
Gurobi 11.0.0 (linux64) logging started Fri Apr 12 22:43:35 2024

Set parameter LogFile to value "/lustre1/scratch/348/vsc34888/JointResearch/05.Models/06.Benchmarking/L.Cont_Investments_per_hour/9n_ByStages_nc50/openStarNet_9n_ByStages_nc50.log"
Set parameter Method to value 2
Set parameter MIPFocus to value 1
Set parameter Presolve to value 2
Set parameter RINS to value 100
Set parameter MIPGap to value 0.01
Set parameter Threads to value 36
Set parameter TimeLimit to value 259200
Set parameter IterationLimit to value 760000000
Gurobi Optimizer version 11.0.0 build v11.0.0rc2 (linux64 - "Rocky Linux 8.8 (Green Obsidian)")

CPU model: Intel(R) Xeon(R) Gold 6140 CPU @ 2.30GHz, instruction set [SSE2|AVX|AVX2|AVX512]
Thread count: 36 physical cores, 36 logical processors, using up to 36 threads

Optimize a model with 13103 rows, 6900 columns and 39408 nonzeros
Model fingerprint: 0x1a867926
Variable types: 6864 continuous, 36 integer (36 binary)
Coefficient statistics:
  Matrix range     [9e-04, 2e+03]
  Objective range  [1e+00, 1e+00]
  Bounds range     [8e-04, 2e+00]
  RHS range        [8e-04, 1e+00]
Presolve removed 4453 rows and 2354 columns
Presolve time: 0.06s
Presolved: 8650 rows, 4546 columns, 29510 nonzeros
Variable types: 4510 continuous, 36 integer (36 binary)
Found heuristic solution: objective 840.6783723
Root relaxation presolved: 8650 rows, 4546 columns, 29510 nonzeros

Root barrier log...

Ordering time: 0.00s

Barrier statistics:
 Dense cols : 36
 AA' NZ     : 1.024e+05
 Factor NZ  : 2.029e+05 (roughly 7 MB of memory)
 Factor Ops : 6.756e+06 (less than 1 second per iteration)
 Threads    : 36

                  Objective                Residual
Iter       Primal          Dual         Primal    Dual     Compl     Time
   0   4.69874469e+05 -5.14803359e+07  7.13e+00 5.26e+02  1.18e+04     0s
   1   7.56206756e+04 -2.07333484e+07  9.74e-01 3.91e-09  1.79e+03     0s
   2   1.75220574e+04 -4.74426049e+06  2.77e-02 3.75e-09  2.88e+02     0s
   3   7.92526262e+03 -9.40340996e+04  2.75e-14 4.04e-11  6.04e+00     0s
   4   1.49776329e+03 -1.42645099e+04  6.48e-14 6.11e-12  9.33e-01     0s
   5   7.23708381e+02 -4.34354335e+03  2.31e-14 1.56e-12  3.00e-01     0s
   6   5.06278998e+02 -1.62251754e+03  1.51e-14 1.82e-12  1.26e-01     0s
   7   3.07225677e+02 -4.37802314e+02  7.11e-14 9.09e-13  4.41e-02     0s
   8   1.62563243e+02 -1.48076669e+02  1.79e-13 9.09e-13  1.84e-02     0s
   9   1.10006131e+02  5.49433706e+01  1.95e-13 1.82e-12  3.26e-03     0s
  10   9.77109835e+01  7.38046623e+01  3.09e-12 1.82e-12  1.42e-03     0s
  11   9.40368519e+01  8.23090561e+01  1.86e-12 1.82e-12  6.94e-04     0s
  12   9.23855731e+01  8.38940597e+01  1.73e-12 9.09e-13  5.03e-04     0s
  13   9.11931134e+01  8.66065994e+01  1.31e-12 1.82e-12  2.72e-04     1s
  14   9.04707380e+01  8.89848843e+01  1.58e-12 1.82e-12  8.80e-05     1s
  15   9.02446660e+01  8.96553081e+01  2.40e-12 1.82e-12  3.49e-05     1s
  16   9.01498892e+01  9.01025352e+01  1.75e-11 1.82e-12  2.80e-06     1s
  17   9.01279933e+01  9.01246136e+01  2.88e-09 1.82e-12  2.00e-07     1s
  18   9.01261015e+01  9.01257123e+01  7.45e-09 1.82e-12  2.30e-08     1s
  19   9.01258888e+01  9.01258829e+01  1.60e-09 1.82e-12  3.52e-10     1s
  20   9.01258875e+01  9.01258875e+01  7.27e-10 1.82e-12  3.95e-13     1s

Barrier solved model in 20 iterations and 0.62 seconds (0.21 work units)
Optimal objective 9.01258875e+01


Root relaxation: objective 9.012589e+01, 638 iterations, 0.58 seconds (0.11 work units)

    Nodes    |    Current Node    |     Objective Bounds      |     Work
 Expl Unexpl |  Obj  Depth IntInf | Incumbent    BestBd   Gap | It/Node Time

     0     0   90.12589    0    6  840.67837   90.12589  89.3%     -    0s
H    0     0                     694.7908398   90.12589  87.0%     -    0s
     0     0   97.66082    0    1  694.79084   97.66082  85.9%     -    1s
H    0     0                      98.6665976   97.66082  1.02%     -    1s

Cutting planes:
  Gomory: 1
  Cover: 1
  MIR: 43
  Relax-and-lift: 4

Explored 1 nodes (759 simplex iterations) in 1.42 seconds (0.35 work units)
Thread count was 36 (of 36 available processors)

Solution count 3: 98.6666 694.791 840.678 

Optimal solution found (tolerance 1.00e-02)
Best objective 9.866659762092e+01, best bound 9.787294370617e+01, gap 0.8044%

Gurobi 11.0.0 (linux64) logging started Fri Apr 12 22:43:38 2024

Set parameter LogFile to value "/lustre1/scratch/348/vsc34888/JointResearch/05.Models/06.Benchmarking/L.Cont_Investments_per_hour/9n_ByStages_nc50/openStarNet_9n_ByStages_nc50.log"
Set parameter Method to value 2
Set parameter MIPFocus to value 1
Set parameter Presolve to value 2
Set parameter RINS to value 100
Set parameter MIPGap to value 0.01
Set parameter Threads to value 36
Set parameter TimeLimit to value 259200
Set parameter IterationLimit to value 760000000
Gurobi Optimizer version 11.0.0 build v11.0.0rc2 (linux64 - "Rocky Linux 8.8 (Green Obsidian)")

CPU model: Intel(R) Xeon(R) Gold 6140 CPU @ 2.30GHz, instruction set [SSE2|AVX|AVX2|AVX512]
Thread count: 36 physical cores, 36 logical processors, using up to 36 threads

Optimize a model with 13103 rows, 6864 columns and 32172 nonzeros
Model fingerprint: 0x0e0c6e2c
Coefficient statistics:
  Matrix range     [9e-04, 2e+03]
  Objective range  [1e+00, 1e+00]
  Bounds range     [8e-04, 2e+00]
  RHS range        [8e-04, 2e+01]
Presolve removed 11903 rows and 4584 columns
Presolve time: 0.01s
Presolved: 1200 rows, 2300 columns, 5240 nonzeros

Ordering time: 0.00s

Barrier statistics:
 AA' NZ     : 2.770e+03
 Factor NZ  : 9.780e+03 (roughly 1 MB of memory)
 Factor Ops : 9.632e+04 (less than 1 second per iteration)
 Threads    : 1

                  Objective                Residual
Iter       Primal          Dual         Primal    Dual     Compl     Time
   0   3.55679325e+05 -9.32702030e+06  5.44e+00 8.14e+02  8.67e+03     0s
   1   5.06347459e+04 -4.69550718e+06  5.36e-01 7.86e-12  1.34e+03     0s
   2   1.30039914e+04 -6.74742197e+05  5.39e-03 5.91e-12  1.31e+02     0s
   3   4.18400797e+03 -1.94318633e+04  1.67e-15 9.21e-12  4.45e+00     0s
   4   1.03729452e+03 -3.20035015e+03  1.61e-15 1.73e-12  7.98e-01     0s
   5   4.76205490e+02 -1.00988889e+03  7.77e-16 1.82e-12  2.80e-01     0s
   6   2.95334035e+02 -3.67419904e+02  5.00e-16 1.82e-12  1.25e-01     0s
   7   1.76632799e+02 -6.74789539e+01  2.55e-15 3.64e-12  4.60e-02     0s
   8   1.41367900e+02  4.04746959e+01  6.00e-15 1.82e-12  1.90e-02     0s
   9   1.10550148e+02  7.81117105e+01  2.55e-15 1.36e-12  6.11e-03     0s
  10   1.01122456e+02  9.23803410e+01  7.11e-15 1.82e-12  1.65e-03     0s
  11   9.97798659e+01  9.70110831e+01  1.04e-14 9.09e-13  5.21e-04     0s
  12   9.90666754e+01  9.80905216e+01  9.88e-15 9.09e-13  1.84e-04     0s
  13   9.88609872e+01  9.84142675e+01  5.11e-15 9.09e-13  8.41e-05     0s
  14   9.87565507e+01  9.85862254e+01  1.53e-14 1.82e-12  3.21e-05     0s
  15   9.86828164e+01  9.86581576e+01  1.84e-14 1.82e-12  4.64e-06     0s
  16   9.86674938e+01  9.86663364e+01  1.19e-13 1.82e-12  2.18e-07     0s
  17   9.86666935e+01  9.86665763e+01  1.63e-10 1.82e-12  2.21e-08     0s
  18   9.86665984e+01  9.86665963e+01  2.01e-10 1.82e-12  3.80e-10     0s
  19   9.86665976e+01  9.86665976e+01  1.99e-10 1.82e-12  7.95e-13     0s

Barrier solved model in 19 iterations and 0.03 seconds (0.03 work units)
Optimal objective 9.86665976e+01

Crossover log...

     561 DPushes remaining with DInf 0.0000000e+00                 0s
       0 DPushes remaining with DInf 0.0000000e+00                 0s

       2 PPushes remaining with PInf 0.0000000e+00                 0s
       0 PPushes remaining with PInf 0.0000000e+00                 0s

  Push phase complete: Pinf 0.0000000e+00, Dinf 3.0066444e-14      0s

Iteration    Objective       Primal Inf.    Dual Inf.      Time
      48    9.8666598e+01   0.000000e+00   0.000000e+00      0s

Solved in 48 iterations and 0.04 seconds (0.03 work units)
Optimal objective  9.866659762e+01
